p cnf 7230 16
-377 -2664 -2848 0
-375 -2666 -2846 0
-1574 -2648 -2844 0
-1572 -2138 -2842 0
377 -2849 0
375 -2847 0
1574 -2845 0
1572 -2843 0
2848 2849 0
2846 2847 0
2844 2845 0
2842 2843 0
2664 -2849 0
2666 -2847 0
2648 -2845 0
2138 -2843 0
